






































































































42 35 56 51 60 46 
71 57 40 59 69 4 6 
33 76 8 43 32 73 
48 53 30 5 70 39 
29 2 7 54 44 28 
25 37 31 24 20 47 
11 16 62 1 75 61 22 
10 38 13 19 27 68 
18 65 36 15 17 23 67 
41 21 66 55 63 74 14 
34 26 72 64 58 50 
12 52 45 9 3 49 0 
